StudentsNr = 10;
InstructorsNr = 6;
DaysNr = 2;
SlotsPerDay = 20;
AvailabilitySlotsLenght = 20;
RoomNr = 2;
ProgrammNr = 1;
DegreeNr = 1;
RolesNr = 1;
CoursesNr = 9;
InstructorsProgramm = [{1}, {1}, {1}, {1}, {1}, {1}];
InstructorRolesPerProgramm = [|{2, 3, 6}|];
InstructorsAvailability = [|0, 1, |0, 1, |0, 1, |0, 0, |0, 1, |1, 1|];
StudentsProgramm = [1, 1, 1, 1, 1, 1, 1, 1, 1, 1];
StudentsDegree = [1, 1, 1, 1, 1, 1, 1, 1, 1, 1];
StudentsSupervisorId = [2, 3, 2, 6, 2, 2, 6, 5, 6, 1];
StudentsCourseIds = [{4, 5, 7}, {3, 4, 5}, {4, 6, 8}, {4, 5, 8}, {2, 3, 4}, {2, 4, 7}, {1, 2, 3}, {1, 4, 7}, {4, 7, 8}, {1, 3, 4}];
StudentsAvailability = [|0, 0, |0, 0, |1, 1, |0, 0, |1, 1, |0, 1, |0, 1, |0, 0, |1, 1, |0, 0|];
TheoryticalMinCard = [0, 0, 0, 0, 1, 1, 1, 0, 0, 0];
CoursesInstructorIds = [{2, 3, 6}, {4}, {1, 2, 3, 5, 6}, {1, 4, 5, 6}, {2, 3}, {6}, {3}, {1, 2, 4}, {6}];
RolesDemands = [2];
RolesContinuity = [];
ExamLen = [1, 1, 1, 1, 1, 1, 1, 1, 1, 1];
LunchTsMinLen = 1;
LunchStarts = [6..14, 28..35];
SupervisorAvailable = 0;
OptimalLunchLenght = [3, 1];
OptimalStartTs = [1, 0];
OptimalFinishTs = [0, 20];
MinimizeRooms = 0;
RolesSoftContinuity = [|1|3|];
SameDegreeInRoom = 0;
Mergeability = 2;
